algorithms_of_dicrete_optimalisation/L4-max_flow/matching_2_2.lp.out
Problem:    
Rows:       8
Columns:    16
Non-zeros:  24
Status:     OPTIMAL
Objective:  Max_Flow = 4 (MAXimum)

   No.   Row name   St   Activity     Lower bound   Upper bound    Marginal
------ ------------ -- ------------- ------------- ------------- -------------
     1 Conservation_1
                    NS             0             0             =             1 
     2 Conservation_2
                    NS             0             0             =         < eps
     3 Conservation_3
                    NS             0             0             =             1 
     4 Conservation_4
                    NS             0             0             =             1 
     5 Conservation_5
                    NS             0             0             =             1 
     6 Conservation_6
                    NS             0             0             =             1 
     7 Conservation_7
                    NS             0             0             =         < eps
     8 Conservation_8
                    NS             0             0             =             1 

   No. Column name  St   Activity     Lower bound   Upper bound    Marginal
------ ------------ -- ------------- ------------- ------------- -------------
     1 f_0_1        NU             1             0             1         < eps
     2 f_0_2        NU             1             0             1             1 
     3 f_0_3        B              1             0             1 
     4 f_0_4        B              1             0             1 
     5 f_1_5        B              1             0             1 
     6 f_1_8        B              0             0             1 
     7 f_2_6        NL             0             0             1            -1 
     8 f_2_7        B              1             0             1 
     9 f_3_5        B              0             0             1 
    10 f_3_8        NU             1             0             1         < eps
    11 f_4_5        NL             0             0             1         < eps
    12 f_4_6        B              1             0             1 
    13 f_5_9        NU             1             0             1             1 
    14 f_6_9        NU             1             0             1             1 
    15 f_7_9        B              1             0             1 
    16 f_8_9        NU             1             0             1             1 

Karush-Kuhn-Tucker optimality conditions:

KKT.PE: max.abs.err = 0.00e+00 on row 0
        max.rel.err = 0.00e+00 on row 0
        High quality

KKT.PB: max.abs.err = 0.00e+00 on row 0
        max.rel.err = 0.00e+00 on row 0
        High quality

KKT.DE: max.abs.err = 0.00e+00 on column 0
        max.rel.err = 0.00e+00 on column 0
        High quality

KKT.DB: max.abs.err = 0.00e+00 on row 0
        max.rel.err = 0.00e+00 on row 0
        High quality

End of output
